/*********************************************
 * OPL 12.6.0.0 Data
 * Author: Adrian Rodriguez Bazaga, Pau Rodriguez Esmerats
 * Creation Date: 06/12/2017 at 23:05:01
 *********************************************/

nNurses=339;
maxConsec=2;
maxPresence=7;
maxHours=5;
minHours=1;
hours=24;
demand= [60 69 92 85 69 92 85 74 64 33 4 10 7 16 9 11 8 8 5 6 39 77 40 66  ];
